BAYES
484
2 2 2 2 2 2 2 2 2 2 2 2 2 2 2 2 2 2 2 2 2 2 2 2 2 2 2 2 2 2 2 2 2 2 2 2 2 2 2 2 2 2 2 2 2 2 2 2 2 2 2 2 2 2 2 2 2 2 2 2 2 2 2 2 2 2 2 2 2 2 2 2 2 2 2 2 2 2 2 2 2 2 2 2 2 2 2 2 2 2 2 2 2 2 2 2 2 2 2 2 2 2 2 2 2 2 2 2 2 2 2 2 2 2 2 2 2 2 2 2 2 2 2 2 2 2 2 2 2 2 2 2 2 2 2 2 2 2 2 2 2 2 2 2 2 2 2 2 2 2 2 2 2 2 2 2 2 2 2 2 2 2 2 2 2 2 2 2 2 2 2 2 2 2 2 2 2 2 2 2 2 2 2 2 2 2 2 2 2 2 2 2 2 2 2 2 2 2 2 2 2 2 2 2 2 2 2 2 2 2 2 2 2 2 2 2 2 2 2 2 2 2 2 2 2 2 2 2 2 2 2 2 2 2 2 2 2 2 2 2 2 2 2 2 2 2 2 2 2 2 2 2 2 2 2 2 2 2 2 2 2 2 2 2 2 2 2 2 2 2 2 2 2 2 2 2 2 2 2 2 2 2 2 2 2 2 2 2 2 2 2 2 2 2 2 2 2 2 2 2 2 2 2 2 2 2 2 2 2 2 2 2 2 2 2 2 2 2 2 2 2 2 2 2 2 2 2 2 2 2 2 2 2 2 2 2 2 2 2 2 2 2 2 2 2 2 2 2 2 2 2 2 2 2 2 2 2 2 2 2 2 2 2 2 2 2 2 2 2 2 2 2 2 2 2 2 2 2 2 2 2 2 2 2 2 2 2 2 2 2 2 2 2 2 2 2 2 2 2 2 2 2 2 2 2 2 2 2 2 2 2 2 2 2 2 2 2 2 2 2 2 2 2 2 2 2 2 2 2 2 2 2 2 2 2 2 2 2 2 2 2 2 2 2 2 2 2 2 2 2 2 2 2 2 2 2 2 2 2 2 2 2 2 2 2 2 2 2 2 2 2 2 2 2 2 2 2 2 2 2 2 2 2 2
484
1 0
2 0 1
2 1 2
2 2 3
2 3 4
2 4 5
2 5 6
2 6 7
2 7 8
2 8 9
2 9 10
2 10 11
2 11 12
2 12 13
2 13 14
2 14 15
2 15 16
2 16 17
2 17 18
2 18 19
2 19 20
2 20 21
2 0 22
3 1 22 23
3 2 23 24
3 3 24 25
3 4 25 26
3 5 26 27
3 6 27 28
3 7 28 29
3 8 29 30
3 9 30 31
3 10 31 32
3 11 32 33
3 12 33 34
3 13 34 35
3 14 35 36
3 15 36 37
3 16 37 38
3 17 38 39
3 18 39 40
3 19 40 41
3 20 41 42
3 21 42 43
2 22 44
3 23 44 45
3 24 45 46
3 25 46 47
3 26 47 48
3 27 48 49
3 28 49 50
3 29 50 51
3 30 51 52
3 31 52 53
3 32 53 54
3 33 54 55
3 34 55 56
3 35 56 57
3 36 57 58
3 37 58 59
3 38 59 60
3 39 60 61
3 40 61 62
3 41 62 63
3 42 63 64
3 43 64 65
2 44 66
3 45 66 67
3 46 67 68
3 47 68 69
3 48 69 70
3 49 70 71
3 50 71 72
3 51 72 73
3 52 73 74
3 53 74 75
3 54 75 76
3 55 76 77
3 56 77 78
3 57 78 79
3 58 79 80
3 59 80 81
3 60 81 82
3 61 82 83
3 62 83 84
3 63 84 85
3 64 85 86
3 65 86 87
2 66 88
3 67 88 89
3 68 89 90
3 69 90 91
3 70 91 92
3 71 92 93
3 72 93 94
3 73 94 95
3 74 95 96
3 75 96 97
3 76 97 98
3 77 98 99
3 78 99 100
3 79 100 101
3 80 101 102
3 81 102 103
3 82 103 104
3 83 104 105
3 84 105 106
3 85 106 107
3 86 107 108
3 87 108 109
2 88 110
3 89 110 111
3 90 111 112
3 91 112 113
3 92 113 114
3 93 114 115
3 94 115 116
3 95 116 117
3 96 117 118
3 97 118 119
3 98 119 120
3 99 120 121
3 100 121 122
3 101 122 123
3 102 123 124
3 103 124 125
3 104 125 126
3 105 126 127
3 106 127 128
3 107 128 129
3 108 129 130
3 109 130 131
2 110 132
3 111 132 133
3 112 133 134
3 113 134 135
3 114 135 136
3 115 136 137
3 116 137 138
3 117 138 139
3 118 139 140
3 119 140 141
3 120 141 142
3 121 142 143
3 122 143 144
3 123 144 145
3 124 145 146
3 125 146 147
3 126 147 148
3 127 148 149
3 128 149 150
3 129 150 151
3 130 151 152
3 131 152 153
2 132 154
3 133 154 155
3 134 155 156
3 135 156 157
3 136 157 158
3 137 158 159
3 138 159 160
3 139 160 161
3 140 161 162
3 141 162 163
3 142 163 164
3 143 164 165
3 144 165 166
3 145 166 167
3 146 167 168
3 147 168 169
3 148 169 170
3 149 170 171
3 150 171 172
3 151 172 173
3 152 173 174
3 153 174 175
2 154 176
3 155 176 177
3 156 177 178
3 157 178 179
3 158 179 180
3 159 180 181
3 160 181 182
3 161 182 183
3 162 183 184
3 163 184 185
3 164 185 186
3 165 186 187
3 166 187 188
3 167 188 189
3 168 189 190
3 169 190 191
3 170 191 192
3 171 192 193
3 172 193 194
3 173 194 195
3 174 195 196
3 175 196 197
2 176 198
3 177 198 199
3 178 199 200
3 179 200 201
3 180 201 202
3 181 202 203
3 182 203 204
3 183 204 205
3 184 205 206
3 185 206 207
3 186 207 208
3 187 208 209
3 188 209 210
3 189 210 211
3 190 211 212
3 191 212 213
3 192 213 214
3 193 214 215
3 194 215 216
3 195 216 217
3 196 217 218
3 197 218 219
2 198 220
3 199 220 221
3 200 221 222
3 201 222 223
3 202 223 224
3 203 224 225
3 204 225 226
3 205 226 227
3 206 227 228
3 207 228 229
3 208 229 230
3 209 230 231
3 210 231 232
3 211 232 233
3 212 233 234
3 213 234 235
3 214 235 236
3 215 236 237
3 216 237 238
3 217 238 239
3 218 239 240
3 219 240 241
2 220 242
3 221 242 243
3 222 243 244
3 223 244 245
3 224 245 246
3 225 246 247
3 226 247 248
3 227 248 249
3 228 249 250
3 229 250 251
3 230 251 252
3 231 252 253
3 232 253 254
3 233 254 255
3 234 255 256
3 235 256 257
3 236 257 258
3 237 258 259
3 238 259 260
3 239 260 261
3 240 261 262
3 241 262 263
2 242 264
3 243 264 265
3 244 265 266
3 245 266 267
3 246 267 268
3 247 268 269
3 248 269 270
3 249 270 271
3 250 271 272
3 251 272 273
3 252 273 274
3 253 274 275
3 254 275 276
3 255 276 277
3 256 277 278
3 257 278 279
3 258 279 280
3 259 280 281
3 260 281 282
3 261 282 283
3 262 283 284
3 263 284 285
2 264 286
3 265 286 287
3 266 287 288
3 267 288 289
3 268 289 290
3 269 290 291
3 270 291 292
3 271 292 293
3 272 293 294
3 273 294 295
3 274 295 296
3 275 296 297
3 276 297 298
3 277 298 299
3 278 299 300
3 279 300 301
3 280 301 302
3 281 302 303
3 282 303 304
3 283 304 305
3 284 305 306
3 285 306 307
2 286 308
3 287 308 309
3 288 309 310
3 289 310 311
3 290 311 312
3 291 312 313
3 292 313 314
3 293 314 315
3 294 315 316
3 295 316 317
3 296 317 318
3 297 318 319
3 298 319 320
3 299 320 321
3 300 321 322
3 301 322 323
3 302 323 324
3 303 324 325
3 304 325 326
3 305 326 327
3 306 327 328
3 307 328 329
2 308 330
3 309 330 331
3 310 331 332
3 311 332 333
3 312 333 334
3 313 334 335
3 314 335 336
3 315 336 337
3 316 337 338
3 317 338 339
3 318 339 340
3 319 340 341
3 320 341 342
3 321 342 343
3 322 343 344
3 323 344 345
3 324 345 346
3 325 346 347
3 326 347 348
3 327 348 349
3 328 349 350
3 329 350 351
2 330 352
3 331 352 353
3 332 353 354
3 333 354 355
3 334 355 356
3 335 356 357
3 336 357 358
3 337 358 359
3 338 359 360
3 339 360 361
3 340 361 362
3 341 362 363
3 342 363 364
3 343 364 365
3 344 365 366
3 345 366 367
3 346 367 368
3 347 368 369
3 348 369 370
3 349 370 371
3 350 371 372
3 351 372 373
2 352 374
3 353 374 375
3 354 375 376
3 355 376 377
3 356 377 378
3 357 378 379
3 358 379 380
3 359 380 381
3 360 381 382
3 361 382 383
3 362 383 384
3 363 384 385
3 364 385 386
3 365 386 387
3 366 387 388
3 367 388 389
3 368 389 390
3 369 390 391
3 370 391 392
3 371 392 393
3 372 393 394
3 373 394 395
2 374 396
3 375 396 397
3 376 397 398
3 377 398 399
3 378 399 400
3 379 400 401
3 380 401 402
3 381 402 403
3 382 403 404
3 383 404 405
3 384 405 406
3 385 406 407
3 386 407 408
3 387 408 409
3 388 409 410
3 389 410 411
3 390 411 412
3 391 412 413
3 392 413 414
3 393 414 415
3 394 415 416
3 395 416 417
2 396 418
3 397 418 419
3 398 419 420
3 399 420 421
3 400 421 422
3 401 422 423
3 402 423 424
3 403 424 425
3 404 425 426
3 405 426 427
3 406 427 428
3 407 428 429
3 408 429 430
3 409 430 431
3 410 431 432
3 411 432 433
3 412 433 434
3 413 434 435
3 414 435 436
3 415 436 437
3 416 437 438
3 417 438 439
2 418 440
3 419 440 441
3 420 441 442
3 421 442 443
3 422 443 444
3 423 444 445
3 424 445 446
3 425 446 447
3 426 447 448
3 427 448 449
3 428 449 450
3 429 450 451
3 430 451 452
3 431 452 453
3 432 453 454
3 433 454 455
3 434 455 456
3 435 456 457
3 436 457 458
3 437 458 459
3 438 459 460
3 439 460 461
2 440 462
3 441 462 463
3 442 463 464
3 443 464 465
3 444 465 466
3 445 466 467
3 446 467 468
3 447 468 469
3 448 469 470
3 449 470 471
3 450 471 472
3 451 472 473
3 452 473 474
3 453 474 475
3 454 475 476
3 455 476 477
3 456 477 478
3 457 478 479
3 458 479 480
3 459 480 481
3 460 481 482
3 461 482 483

2
0.492928 0.507072
4
0.0 1.0 1.0 0.0
4
1.0 0.0 0.0 1.0
4
0.0 1.0 1.0 0.0
4
1.0 0.0 0.0 1.0
4
0.0 1.0 1.0 0.0
4
1.0 0.0 0.0 1.0
4
1.0 0.0 0.0 1.0
4
0.0 1.0 1.0 0.0
4
0.0 1.0 1.0 0.0
4
0.0 1.0 1.0 0.0
4
1.0 0.0 0.0 1.0
4
1.0 0.0 0.0 1.0
4
1.0 0.0 0.0 1.0
4
1.0 0.0 0.0 1.0
4
0.0 1.0 1.0 0.0
4
1.0 0.0 0.0 1.0
4
0.0 1.0 1.0 0.0
4
0.0 1.0 1.0 0.0
4
0.0 1.0 1.0 0.0
4
1.0 0.0 0.0 1.0
4
1.0 0.0 0.0 1.0
4
1.0 0.0 0.0 1.0
8
0.0 1.0 1.0 0.0 0.0 1.0 0.0 1.0
8
0.0 1.0 1.0 0.0 0.0 1.0 0.0 1.0
8
0.768925 0.231075 0.479862 0.520138 0.518291 0.481709 0.900589 0.0994107
8
1.0 0.0 0.0 1.0 1.0 0.0 1.0 0.0
8
0.0 1.0 1.0 0.0 0.0 1.0 0.0 1.0
8
0.0 1.0 0.0 1.0 0.0 1.0 1.0 0.0
8
0.0 1.0 0.0 1.0 0.0 1.0 1.0 0.0
8
1.0 0.0 1.0 0.0 1.0 0.0 0.0 1.0
8
1.0 0.0 0.0 1.0 1.0 0.0 1.0 0.0
8
1.0 0.0 1.0 0.0 1.0 0.0 0.0 1.0
8
0.0625559 0.937444 0.791589 0.208411 0.449809 0.550191 0.77852 0.22148
8
1.0 0.0 1.0 0.0 0.0 1.0 1.0 0.0
8
0.0 1.0 0.0 1.0 1.0 0.0 1.0 0.0
8
1.0 0.0 0.0 1.0 0.0 1.0 1.0 0.0
8
1.0 0.0 0.0 1.0 1.0 0.0 1.0 0.0
8
0.0 1.0 0.0 1.0 0.0 1.0 1.0 0.0
8
0.0 1.0 0.0 1.0 1.0 0.0 1.0 0.0
8
0.0 1.0 1.0 0.0 1.0 0.0 0.0 1.0
8
1.0 0.0 0.0 1.0 0.0 1.0 0.0 1.0
8
0.611864 0.388136 0.340168 0.659832 0.643698 0.356302 0.648749 0.351251
8
1.0 0.0 0.0 1.0 0.0 1.0 0.0 1.0
4
0.125632 0.874368 0.65946 0.34054
8
1.0 0.0 1.0 0.0 0.0 1.0 1.0 0.0
8
0.572224 0.427776 0.589681 0.410319 0.552705 0.447295 0.87089 0.12911
8
1.0 0.0 0.0 1.0 0.0 1.0 0.0 1.0
8
0.334033 0.665967 0.656915 0.343085 0.62747 0.37253 0.945897 0.0541027
8
0.271168 0.728832 0.594647 0.405353 0.500379 0.499621 0.415055 0.584945
8
0.0 1.0 1.0 0.0 0.0 1.0 1.0 0.0
8
0.157349 0.842651 0.861841 0.138159 0.823709 0.176291 0.880208 0.119792
8
1.0 0.0 0.0 1.0 1.0 0.0 1.0 0.0
8
0.0 1.0 1.0 0.0 1.0 0.0 0.0 1.0
8
0.52882 0.47118 0.60211 0.39789 0.462597 0.537403 0.474717 0.525283
8
0.0 1.0 1.0 0.0 0.0 1.0 0.0 1.0
8
0.0 1.0 1.0 0.0 1.0 0.0 1.0 0.0
8
1.0 0.0 1.0 0.0 1.0 0.0 0.0 1.0
8
1.0 0.0 1.0 0.0 1.0 0.0 0.0 1.0
8
0.745467 0.254533 0.750321 0.249679 0.796513 0.203487 0.940254 0.0597464
8
1.0 0.0 0.0 1.0 0.0 1.0 0.0 1.0
8
0.828003 0.171997 0.0131539 0.986846 0.99639 0.00360989 0.976823 0.0231767
8
0.0 1.0 0.0 1.0 0.0 1.0 1.0 0.0
8
1.0 0.0 0.0 1.0 1.0 0.0 0.0 1.0
8
0.0 1.0 1.0 0.0 0.0 1.0 0.0 1.0
8
0.0 1.0 1.0 0.0 1.0 0.0 0.0 1.0
4
0.0 1.0 1.0 0.0
8
1.0 0.0 0.0 1.0 1.0 0.0 1.0 0.0
8
0.368575 0.631425 0.60938 0.39062 0.845546 0.154454 0.521186 0.478814
8
0.216892 0.783108 0.6473 0.3527 0.388257 0.611743 0.887923 0.112077
8
0.248653 0.751347 0.682346 0.317654 0.172286 0.827714 0.467276 0.532724
8
1.0 0.0 1.0 0.0 0.0 1.0 1.0 0.0
8
1.0 0.0 1.0 0.0 1.0 0.0 0.0 1.0
8
0.0 1.0 1.0 0.0 1.0 0.0 1.0 0.0
8
0.5929 0.4071 0.804602 0.195398 0.445918 0.554082 0.438446 0.561554
8
1.0 0.0 0.0 1.0 0.0 1.0 1.0 0.0
8
0.0 1.0 1.0 0.0 0.0 1.0 0.0 1.0
8
0.0 1.0 0.0 1.0 0.0 1.0 1.0 0.0
8
0.0733347 0.926665 0.112543 0.887457 0.465387 0.534613 0.580712 0.419288
8
0.545993 0.454007 0.80426 0.19574 0.520177 0.479823 0.98202 0.0179802
8
0.0 1.0 0.0 1.0 1.0 0.0 1.0 0.0
8
1.0 0.0 0.0 1.0 0.0 1.0 0.0 1.0
8
0.96285 0.0371501 0.836973 0.163027 0.975729 0.0242712 0.0124875 0.987512
8
1.0 0.0 1.0 0.0 1.0 0.0 0.0 1.0
8
1.0 0.0 1.0 0.0 0.0 1.0 1.0 0.0
8
1.0 0.0 0.0 1.0 0.0 1.0 1.0 0.0
8
0.0 1.0 1.0 0.0 0.0 1.0 1.0 0.0
8
0.0931656 0.906834 0.641678 0.358322 0.027195 0.972805 0.0515319 0.948468
4
0.0 1.0 1.0 0.0
8
0.367529 0.632471 0.00253236 0.997468 0.0713614 0.928639 0.961959 0.0380414
8
0.324213 0.675787 0.540891 0.459109 0.309954 0.690046 0.373478 0.626522
8
0.0 1.0 0.0 1.0 1.0 0.0 1.0 0.0
8
0.463377 0.536623 0.784249 0.215751 0.991438 0.00856167 0.141414 0.858586
8
1.0 0.0 1.0 0.0 0.0 1.0 0.0 1.0
8
0.744038 0.255962 0.789616 0.210384 0.0508646 0.949135 0.135838 0.864162
8
0.93937 0.0606302 0.503367 0.496633 0.782193 0.217807 0.0107311 0.989269
8
0.0 1.0 0.0 1.0 1.0 0.0 0.0 1.0
8
1.0 0.0 0.0 1.0 1.0 0.0 0.0 1.0
8
0.545326 0.454674 0.0888917 0.911108 0.62288 0.37712 0.536764 0.463236
8
1.0 0.0 1.0 0.0 1.0 0.0 0.0 1.0
8
1.0 0.0 0.0 1.0 1.0 0.0 0.0 1.0
8
0.0 1.0 1.0 0.0 1.0 0.0 0.0 1.0
8
1.0 0.0 0.0 1.0 0.0 1.0 0.0 1.0
8
1.0 0.0 0.0 1.0 1.0 0.0 1.0 0.0
8
0.322015 0.677985 0.161353 0.838647 0.568747 0.431253 0.858779 0.141221
8
1.0 0.0 0.0 1.0 1.0 0.0 1.0 0.0
8
1.0 0.0 0.0 1.0 1.0 0.0 1.0 0.0
8
0.976649 0.0233511 0.43746 0.56254 0.406268 0.593732 0.11342 0.88658
8
0.0 1.0 0.0 1.0 1.0 0.0 1.0 0.0
8
0.373329 0.626671 0.0181714 0.981829 0.541964 0.458036 0.44579 0.55421
4
0.86398 0.13602 0.607143 0.392857
8
0.0 1.0 0.0 1.0 0.0 1.0 1.0 0.0
8
1.0 0.0 1.0 0.0 1.0 0.0 0.0 1.0
8
0.0 1.0 0.0 1.0 1.0 0.0 0.0 1.0
8
0.131549 0.868451 0.810384 0.189616 0.490363 0.509637 0.716686 0.283314
8
0.0 1.0 0.0 1.0 0.0 1.0 1.0 0.0
8
1.0 0.0 1.0 0.0 0.0 1.0 1.0 0.0
8
0.610663 0.389337 0.161831 0.838169 0.308247 0.691753 0.549689 0.450311
8
0.0 1.0 1.0 0.0 1.0 0.0 1.0 0.0
8
1.0 0.0 0.0 1.0 1.0 0.0 1.0 0.0
8
1.0 0.0 1.0 0.0 0.0 1.0 1.0 0.0
8
0.0 1.0 0.0 1.0 1.0 0.0 1.0 0.0
8
1.0 0.0 0.0 1.0 0.0 1.0 0.0 1.0
8
0.348511 0.651489 0.58284 0.41716 0.341621 0.658379 0.037276 0.962724
8
0.0 1.0 1.0 0.0 1.0 0.0 1.0 0.0
8
0.198769 0.801231 0.313909 0.686091 0.777275 0.222725 0.00928566 0.990714
8
0.84807 0.15193 0.630186 0.369814 0.131591 0.868409 0.63555 0.36445
8
0.686912 0.313088 0.904991 0.0950092 0.455618 0.544382 0.661704 0.338296
8
0.0 1.0 1.0 0.0 1.0 0.0 1.0 0.0
8
1.0 0.0 1.0 0.0 1.0 0.0 0.0 1.0
8
1.0 0.0 0.0 1.0 0.0 1.0 0.0 1.0
8
1.0 0.0 0.0 1.0 0.0 1.0 1.0 0.0
4
0.615072 0.384928 0.0675711 0.932429
8
0.301984 0.698016 0.972562 0.0274381 0.213968 0.786032 0.963688 0.0363115
8
1.0 0.0 0.0 1.0 0.0 1.0 1.0 0.0
8
0.0 1.0 0.0 1.0 1.0 0.0 1.0 0.0
8
1.0 0.0 0.0 1.0 0.0 1.0 1.0 0.0
8
1.0 0.0 0.0 1.0 0.0 1.0 0.0 1.0
8
0.0963642 0.903636 0.216674 0.783326 0.542247 0.457753 0.711437 0.288563
8
0.0 1.0 0.0 1.0 1.0 0.0 0.0 1.0
8
0.427725 0.572275 0.207802 0.792198 0.960802 0.0391975 0.978267 0.0217332
8
0.0 1.0 0.0 1.0 1.0 0.0 0.0 1.0
8
0.366007 0.633993 0.962981 0.0370188 0.850604 0.149396 0.760032 0.239968
8
1.0 0.0 0.0 1.0 0.0 1.0 1.0 0.0
8
0.0 1.0 0.0 1.0 1.0 0.0 1.0 0.0
8
0.0 1.0 1.0 0.0 1.0 0.0 1.0 0.0
8
1.0 0.0 0.0 1.0 1.0 0.0 0.0 1.0
8
0.998785 0.00121502 0.568682 0.431318 0.60947 0.39053 0.939414 0.060586
8
0.545109 0.454891 0.305421 0.694579 0.926486 0.0735143 0.395713 0.604287
8
0.0 1.0 0.0 1.0 1.0 0.0 0.0 1.0
8
0.771574 0.228426 0.351303 0.648697 0.590561 0.409439 0.733635 0.266365
8
0.968817 0.0311827 0.979941 0.0200588 0.469567 0.530433 0.360494 0.639506
8
1.0 0.0 1.0 0.0 1.0 0.0 0.0 1.0
8
1.0 0.0 0.0 1.0 0.0 1.0 1.0 0.0
4
0.0 1.0 1.0 0.0
8
0.0 1.0 0.0 1.0 0.0 1.0 1.0 0.0
8
0.226576 0.773424 0.460621 0.539379 0.392142 0.607858 0.150318 0.849682
8
1.0 0.0 1.0 0.0 0.0 1.0 0.0 1.0
8
0.0 1.0 0.0 1.0 0.0 1.0 1.0 0.0
8
1.0 0.0 0.0 1.0 0.0 1.0 1.0 0.0
8
0.0 1.0 1.0 0.0 1.0 0.0 0.0 1.0
8
0.0 1.0 0.0 1.0 1.0 0.0 1.0 0.0
8
0.501919 0.498081 0.67563 0.32437 0.243822 0.756178 0.894061 0.105939
8
0.476017 0.523983 0.637506 0.362494 0.566826 0.433174 0.441847 0.558153
8
0.0 1.0 1.0 0.0 1.0 0.0 0.0 1.0
8
0.780949 0.219051 0.146184 0.853816 0.659162 0.340838 0.573024 0.426976
8
1.0 0.0 1.0 0.0 1.0 0.0 0.0 1.0
8
1.0 0.0 1.0 0.0 0.0 1.0 0.0 1.0
8
0.600998 0.399002 0.663787 0.336213 0.62351 0.37649 0.844821 0.155179
8
1.0 0.0 0.0 1.0 1.0 0.0 1.0 0.0
8
0.336443 0.663557 0.292806 0.707194 0.150302 0.849698 0.450679 0.549321
8
0.0 1.0 1.0 0.0 0.0 1.0 1.0 0.0
8
0.790229 0.209771 0.450786 0.549214 0.2939 0.7061 0.28065 0.71935
8
1.0 0.0 1.0 0.0 0.0 1.0 1.0 0.0
8
0.181726 0.818274 0.673678 0.326322 0.444069 0.555931 0.0265472 0.973453
8
0.0 1.0 0.0 1.0 1.0 0.0 1.0 0.0
4
0.0 1.0 1.0 0.0
8
0.0 1.0 1.0 0.0 1.0 0.0 0.0 1.0
8
0.0 1.0 1.0 0.0 1.0 0.0 1.0 0.0
8
0.0 1.0 1.0 0.0 1.0 0.0 1.0 0.0
8
1.0 0.0 0.0 1.0 1.0 0.0 0.0 1.0
8
1.0 0.0 0.0 1.0 1.0 0.0 1.0 0.0
8
1.0 0.0 0.0 1.0 0.0 1.0 0.0 1.0
8
0.0 1.0 0.0 1.0 1.0 0.0 0.0 1.0
8
0.0 1.0 1.0 0.0 1.0 0.0 1.0 0.0
8
0.0 1.0 0.0 1.0 1.0 0.0 1.0 0.0
8
0.425896 0.574104 0.301094 0.698906 0.51105 0.48895 0.796794 0.203206
8
1.0 0.0 1.0 0.0 0.0 1.0 0.0 1.0
8
0.0 1.0 1.0 0.0 1.0 0.0 1.0 0.0
8
0.277794 0.722206 0.609986 0.390014 0.42254 0.57746 0.318854 0.681146
8
0.713434 0.286566 0.212939 0.787061 0.483611 0.516389 0.422395 0.577605
8
0.0 1.0 1.0 0.0 0.0 1.0 1.0 0.0
8
0.712287 0.287713 0.304094 0.695906 0.295542 0.704458 0.509082 0.490918
8
1.0 0.0 0.0 1.0 0.0 1.0 1.0 0.0
8
0.0 1.0 0.0 1.0 1.0 0.0 1.0 0.0
8
1.0 0.0 1.0 0.0 0.0 1.0 1.0 0.0
8
1.0 0.0 1.0 0.0 0.0 1.0 1.0 0.0
8
1.0 0.0 0.0 1.0 1.0 0.0 0.0 1.0
4
0.0 1.0 1.0 0.0
8
0.607623 0.392377 0.243847 0.756153 0.662801 0.337199 0.644524 0.355476
8
1.0 0.0 1.0 0.0 0.0 1.0 1.0 0.0
8
1.0 0.0 0.0 1.0 0.0 1.0 1.0 0.0
8
0.0 1.0 0.0 1.0 0.0 1.0 1.0 0.0
8
1.0 0.0 0.0 1.0 0.0 1.0 0.0 1.0
8
0.0 1.0 0.0 1.0 0.0 1.0 1.0 0.0
8
0.0 1.0 0.0 1.0 1.0 0.0 0.0 1.0
8
0.704714 0.295286 0.497391 0.502609 0.835359 0.164641 0.510505 0.489495
8
0.0 1.0 1.0 0.0 1.0 0.0 0.0 1.0
8
1.0 0.0 0.0 1.0 0.0 1.0 0.0 1.0
8
1.0 0.0 0.0 1.0 1.0 0.0 0.0 1.0
8
0.313688 0.686312 0.471415 0.528585 0.986937 0.0130633 0.012281 0.987719
8
0.0 1.0 1.0 0.0 1.0 0.0 0.0 1.0
8
1.0 0.0 0.0 1.0 1.0 0.0 0.0 1.0
8
1.0 0.0 1.0 0.0 1.0 0.0 0.0 1.0
8
1.0 0.0 0.0 1.0 0.0 1.0 1.0 0.0
8
0.116479 0.883521 0.319833 0.680167 0.741628 0.258372 0.226485 0.773515
8
1.0 0.0 0.0 1.0 0.0 1.0 0.0 1.0
8
0.0 1.0 1.0 0.0 1.0 0.0 0.0 1.0
8
0.0 1.0 0.0 1.0 0.0 1.0 1.0 0.0
8
1.0 0.0 0.0 1.0 0.0 1.0 0.0 1.0
4
0.0 1.0 1.0 0.0
8
0.0 1.0 1.0 0.0 1.0 0.0 0.0 1.0
8
1.0 0.0 0.0 1.0 1.0 0.0 1.0 0.0
8
0.597729 0.402271 0.81108 0.18892 0.991595 0.00840489 0.86322 0.13678
8
0.0 1.0 0.0 1.0 0.0 1.0 1.0 0.0
8
0.245266 0.754734 0.792942 0.207058 0.730019 0.269981 0.99301 0.00698962
8
0.0 1.0 0.0 1.0 1.0 0.0 0.0 1.0
8
0.0 1.0 1.0 0.0 1.0 0.0 1.0 0.0
8
1.0 0.0 1.0 0.0 1.0 0.0 0.0 1.0
8
0.0 1.0 0.0 1.0 1.0 0.0 1.0 0.0
8
1.0 0.0 0.0 1.0 1.0 0.0 0.0 1.0
8
0.0 1.0 0.0 1.0 1.0 0.0 1.0 0.0
8
1.0 0.0 1.0 0.0 0.0 1.0 0.0 1.0
8
0.0 1.0 0.0 1.0 1.0 0.0 1.0 0.0
8
0.0 1.0 0.0 1.0 0.0 1.0 1.0 0.0
8
0.285245 0.714755 0.252439 0.747561 0.848089 0.151911 0.532656 0.467344
8
0.0 1.0 0.0 1.0 1.0 0.0 0.0 1.0
8
0.636061 0.363939 0.47934 0.52066 0.266933 0.733067 0.0538986 0.946101
8
0.427433 0.572567 0.92881 0.0711897 0.279642 0.720358 0.715004 0.284996
8
0.932192 0.0678081 0.37147 0.62853 0.0616753 0.938325 0.380359 0.619641
8
1.0 0.0 0.0 1.0 1.0 0.0 1.0 0.0
8
0.0 1.0 0.0 1.0 0.0 1.0 1.0 0.0
4
1.0 0.0 0.0 1.0
8
0.0 1.0 1.0 0.0 0.0 1.0 1.0 0.0
8
0.0 1.0 0.0 1.0 1.0 0.0 1.0 0.0
8
0.0 1.0 0.0 1.0 1.0 0.0 1.0 0.0
8
1.0 0.0 0.0 1.0 0.0 1.0 0.0 1.0
8
0.0 1.0 1.0 0.0 1.0 0.0 0.0 1.0
8
1.0 0.0 0.0 1.0 1.0 0.0 0.0 1.0
8
1.0 0.0 0.0 1.0 1.0 0.0 1.0 0.0
8
0.662287 0.337713 0.850979 0.149021 0.794276 0.205724 0.218514 0.781486
8
0.0688846 0.931115 0.703551 0.296449 0.264084 0.735916 0.0584976 0.941502
8
1.0 0.0 0.0 1.0 1.0 0.0 1.0 0.0
8
0.0 1.0 1.0 0.0 0.0 1.0 1.0 0.0
8
0.0 1.0 0.0 1.0 0.0 1.0 1.0 0.0
8
0.0 1.0 1.0 0.0 1.0 0.0 1.0 0.0
8
1.0 0.0 0.0 1.0 0.0 1.0 1.0 0.0
8
1.0 0.0 1.0 0.0 1.0 0.0 0.0 1.0
8
1.0 0.0 1.0 0.0 1.0 0.0 0.0 1.0
8
1.0 0.0 1.0 0.0 0.0 1.0 1.0 0.0
8
0.0 1.0 1.0 0.0 1.0 0.0 0.0 1.0
8
0.0 1.0 1.0 0.0 0.0 1.0 1.0 0.0
8
0.103056 0.896944 0.735714 0.264286 0.153651 0.846349 0.317728 0.682272
8
0.561575 0.438425 0.45011 0.54989 0.107411 0.892589 0.673049 0.326951
4
0.3862 0.6138 0.800313 0.199687
8
0.084569 0.915431 0.317281 0.682719 0.926385 0.0736148 0.935621 0.0643794
8
0.0 1.0 1.0 0.0 0.0 1.0 0.0 1.0
8
0.767217 0.232783 0.291503 0.708497 0.950596 0.0494036 0.735769 0.264231
8
1.0 0.0 1.0 0.0 0.0 1.0 0.0 1.0
8
0.846516 0.153484 0.110745 0.889255 0.737186 0.262814 0.408091 0.591909
8
1.0 0.0 1.0 0.0 0.0 1.0 0.0 1.0
8
0.193126 0.806874 0.315366 0.684634 0.198734 0.801266 0.119511 0.880489
8
1.0 0.0 0.0 1.0 1.0 0.0 1.0 0.0
8
0.164942 0.835058 0.857625 0.142375 0.810536 0.189464 0.900711 0.0992888
8
0.0 1.0 1.0 0.0 1.0 0.0 0.0 1.0
8
0.125628 0.874372 0.404258 0.595742 0.602316 0.397684 0.533719 0.466281
8
0.446913 0.553087 0.614859 0.385141 0.372546 0.627454 0.67771 0.32229
8
0.0 1.0 0.0 1.0 1.0 0.0 0.0 1.0
8
0.0 1.0 1.0 0.0 1.0 0.0 1.0 0.0
8
1.0 0.0 0.0 1.0 1.0 0.0 0.0 1.0
8
0.0 1.0 1.0 0.0 0.0 1.0 0.0 1.0
8
0.0 1.0 0.0 1.0 1.0 0.0 0.0 1.0
8
1.0 0.0 0.0 1.0 0.0 1.0 1.0 0.0
8
0.0 1.0 1.0 0.0 1.0 0.0 0.0 1.0
8
1.0 0.0 0.0 1.0 1.0 0.0 1.0 0.0
8
0.0 1.0 1.0 0.0 0.0 1.0 0.0 1.0
4
0.0 1.0 1.0 0.0
8
0.941304 0.0586963 0.0741789 0.925821 0.620307 0.379693 0.535808 0.464192
8
0.0 1.0 0.0 1.0 1.0 0.0 1.0 0.0
8
1.0 0.0 1.0 0.0 0.0 1.0 0.0 1.0
8
1.0 0.0 1.0 0.0 0.0 1.0 1.0 0.0
8
0.320681 0.679319 0.308656 0.691344 0.683139 0.316861 0.582744 0.417256
8
1.0 0.0 1.0 0.0 0.0 1.0 0.0 1.0
8
1.0 0.0 1.0 0.0 0.0 1.0 1.0 0.0
8
0.646476 0.353524 0.977204 0.0227959 0.602425 0.397575 0.143356 0.856644
8
0.0 1.0 1.0 0.0 1.0 0.0 0.0 1.0
8
0.0 1.0 1.0 0.0 0.0 1.0 0.0 1.0
8
0.0 1.0 0.0 1.0 1.0 0.0 1.0 0.0
8
1.0 0.0 0.0 1.0 0.0 1.0 1.0 0.0
8
1.0 0.0 0.0 1.0 0.0 1.0 0.0 1.0
8
0.427486 0.572514 0.340877 0.659123 0.438314 0.561686 0.570841 0.429159
8
0.417099 0.582901 0.804147 0.195853 0.724607 0.275393 0.0936872 0.906313
8
0.0 1.0 0.0 1.0 0.0 1.0 1.0 0.0
8
0.0 1.0 1.0 0.0 0.0 1.0 1.0 0.0
8
0.264871 0.735129 0.266776 0.733224 0.485157 0.514843 0.630885 0.369115
8
0.13836 0.86164 0.685575 0.314425 0.864969 0.135031 0.91937 0.0806298
8
1.0 0.0 0.0 1.0 0.0 1.0 0.0 1.0
8
0.389455 0.610545 0.556271 0.443729 0.721844 0.278156 0.114062 0.885938
4
1.0 0.0 0.0 1.0
8
1.0 0.0 1.0 0.0 0.0 1.0 1.0 0.0
8
0.0 1.0 1.0 0.0 1.0 0.0 1.0 0.0
8
1.0 0.0 0.0 1.0 1.0 0.0 1.0 0.0
8
0.0 1.0 0.0 1.0 1.0 0.0 1.0 0.0
8
1.0 0.0 1.0 0.0 0.0 1.0 1.0 0.0
8
0.446983 0.553017 0.61007 0.38993 0.604754 0.395246 0.385611 0.614389
8
0.0 1.0 1.0 0.0 1.0 0.0 1.0 0.0
8
1.0 0.0 0.0 1.0 1.0 0.0 0.0 1.0
8
0.740455 0.259545 0.992564 0.00743592 0.930457 0.0695434 0.433981 0.566019
8
0.0 1.0 0.0 1.0 0.0 1.0 1.0 0.0
8
1.0 0.0 0.0 1.0 1.0 0.0 1.0 0.0
8
0.60515 0.39485 0.973931 0.0260687 0.526699 0.473301 0.209904 0.790096
8
1.0 0.0 1.0 0.0 0.0 1.0 0.0 1.0
8
0.694899 0.305101 0.0306813 0.969319 0.357621 0.642379 0.640706 0.359294
8
1.0 0.0 1.0 0.0 0.0 1.0 1.0 0.0
8
0.146734 0.853266 0.834566 0.165434 0.807618 0.192382 0.141101 0.858899
8
1.0 0.0 0.0 1.0 0.0 1.0 1.0 0.0
8
0.0 1.0 1.0 0.0 0.0 1.0 1.0 0.0
8
1.0 0.0 0.0 1.0 1.0 0.0 1.0 0.0
8
1.0 0.0 0.0 1.0 0.0 1.0 1.0 0.0
8
0.0 1.0 0.0 1.0 1.0 0.0 0.0 1.0
4
0.0 1.0 1.0 0.0
8
0.0 1.0 1.0 0.0 1.0 0.0 0.0 1.0
8
1.0 0.0 0.0 1.0 0.0 1.0 0.0 1.0
8
1.0 0.0 0.0 1.0 1.0 0.0 0.0 1.0
8
0.0 1.0 1.0 0.0 1.0 0.0 1.0 0.0
8
1.0 0.0 1.0 0.0 0.0 1.0 1.0 0.0
8
1.0 0.0 0.0 1.0 1.0 0.0 0.0 1.0
8
0.0215747 0.978425 0.117055 0.882945 0.402265 0.597735 0.66347 0.33653
8
1.0 0.0 0.0 1.0 0.0 1.0 1.0 0.0
8
0.0 1.0 0.0 1.0 1.0 0.0 0.0 1.0
8
0.0 1.0 0.0 1.0 0.0 1.0 1.0 0.0
8
1.0 0.0 0.0 1.0 1.0 0.0 1.0 0.0
8
0.0 1.0 1.0 0.0 1.0 0.0 1.0 0.0
8
1.0 0.0 0.0 1.0 0.0 1.0 0.0 1.0
8
0.852191 0.147809 0.0384534 0.961547 0.393591 0.606409 0.922791 0.0772088
8
0.0 1.0 0.0 1.0 1.0 0.0 0.0 1.0
8
1.0 0.0 0.0 1.0 1.0 0.0 1.0 0.0
8
0.0 1.0 1.0 0.0 1.0 0.0 1.0 0.0
8
1.0 0.0 0.0 1.0 1.0 0.0 1.0 0.0
8
0.743811 0.256189 0.767615 0.232385 0.145501 0.854499 0.71447 0.28553
8
0.0 1.0 0.0 1.0 1.0 0.0 0.0 1.0
8
0.0 1.0 0.0 1.0 1.0 0.0 1.0 0.0
4
0.0 1.0 1.0 0.0
8
0.0 1.0 1.0 0.0 0.0 1.0 1.0 0.0
8
0.431359 0.568641 0.678798 0.321202 0.0361601 0.96384 0.0208251 0.979175
8
0.0 1.0 0.0 1.0 1.0 0.0 1.0 0.0
8
0.623095 0.376905 0.561039 0.438961 0.654524 0.345476 0.180888 0.819112
8
0.0 1.0 0.0 1.0 1.0 0.0 0.0 1.0
8
1.0 0.0 1.0 0.0 1.0 0.0 0.0 1.0
8
1.0 0.0 0.0 1.0 1.0 0.0 0.0 1.0
8
0.0 1.0 0.0 1.0 0.0 1.0 1.0 0.0
8
0.0 1.0 0.0 1.0 1.0 0.0 0.0 1.0
8
0.739006 0.260994 0.839318 0.160682 0.42219 0.57781 0.919894 0.0801058
8
1.0 0.0 1.0 0.0 0.0 1.0 0.0 1.0
8
1.0 0.0 1.0 0.0 0.0 1.0 0.0 1.0
8
0.32858 0.67142 0.298716 0.701284 0.215097 0.784903 0.507766 0.492234
8
1.0 0.0 0.0 1.0 0.0 1.0 1.0 0.0
8
0.0 1.0 1.0 0.0 1.0 0.0 0.0 1.0
8
0.344957 0.655043 0.826979 0.173021 0.658894 0.341106 0.767147 0.232853
8
1.0 0.0 0.0 1.0 0.0 1.0 0.0 1.0
8
0.855704 0.144296 0.712089 0.287911 0.816046 0.183954 0.062703 0.937297
8
1.0 0.0 0.0 1.0 1.0 0.0 0.0 1.0
8
0.335615 0.664385 0.296657 0.703343 0.0173591 0.982641 0.0472476 0.952752
8
0.767039 0.232961 0.0193102 0.98069 0.516512 0.483488 0.34433 0.65567
4
1.0 0.0 0.0 1.0
8
0.0 1.0 1.0 0.0 1.0 0.0 1.0 0.0
8
1.0 0.0 1.0 0.0 1.0 0.0 0.0 1.0
8
0.286701 0.713299 0.447538 0.552462 0.0434442 0.956556 0.657824 0.342176
8
0.0 1.0 0.0 1.0 1.0 0.0 0.0 1.0
8
1.0 0.0 1.0 0.0 0.0 1.0 1.0 0.0
8
1.0 0.0 0.0 1.0 1.0 0.0 1.0 0.0
8
1.0 0.0 0.0 1.0 0.0 1.0 0.0 1.0
8
1.0 0.0 1.0 0.0 0.0 1.0 1.0 0.0
8
1.0 0.0 1.0 0.0 0.0 1.0 1.0 0.0
8
1.0 0.0 1.0 0.0 0.0 1.0 1.0 0.0
8
1.0 0.0 0.0 1.0 0.0 1.0 0.0 1.0
8
0.113618 0.886382 0.884518 0.115482 0.302057 0.697943 0.950737 0.0492628
8
0.45385 0.54615 0.722119 0.277881 0.0649671 0.935033 0.0620768 0.937923
8
1.0 0.0 0.0 1.0 0.0 1.0 1.0 0.0
8
0.0 1.0 0.0 1.0 1.0 0.0 1.0 0.0
8
0.0 1.0 0.0 1.0 1.0 0.0 0.0 1.0
8
0.0 1.0 1.0 0.0 1.0 0.0 0.0 1.0
8
0.0 1.0 0.0 1.0 1.0 0.0 0.0 1.0
8
0.352925 0.647075 0.635771 0.364229 0.526226 0.473774 0.417892 0.582108
8
1.0 0.0 1.0 0.0 0.0 1.0 1.0 0.0
8
0.763535 0.236465 0.602396 0.397604 0.0771952 0.922805 0.675758 0.324242
4
0.0 1.0 1.0 0.0
8
0.0 1.0 1.0 0.0 0.0 1.0 0.0 1.0
8
0.0535712 0.946429 0.259887 0.740113 0.863555 0.136445 0.906941 0.0930588
8
0.0 1.0 1.0 0.0 1.0 0.0 0.0 1.0
8
1.0 0.0 0.0 1.0 0.0 1.0 0.0 1.0
8
1.0 0.0 0.0 1.0 0.0 1.0 1.0 0.0
8
1.0 0.0 0.0 1.0 0.0 1.0 1.0 0.0
8
1.0 0.0 0.0 1.0 1.0 0.0 1.0 0.0
8
1.0 0.0 0.0 1.0 0.0 1.0 1.0 0.0
8
0.56998 0.43002 0.29103 0.70897 0.485143 0.514857 0.558465 0.441535
8
0.722417 0.277583 0.964842 0.0351576 0.351369 0.648631 0.660554 0.339446
8
1.0 0.0 1.0 0.0 1.0 0.0 0.0 1.0
8
0.0 1.0 1.0 0.0 1.0 0.0 1.0 0.0
8
0.0 1.0 0.0 1.0 1.0 0.0 0.0 1.0
8
0.0 1.0 1.0 0.0 0.0 1.0 0.0 1.0
8
0.930076 0.0699242 0.172808 0.827192 0.781037 0.218963 0.652493 0.347507
8
1.0 0.0 0.0 1.0 1.0 0.0 1.0 0.0
8
0.556795 0.443205 0.571249 0.428751 0.784975 0.215025 0.586053 0.413947
8
1.0 0.0 0.0 1.0 0.0 1.0 0.0 1.0
8
1.0 0.0 0.0 1.0 1.0 0.0 0.0 1.0
8
1.0 0.0 1.0 0.0 1.0 0.0 0.0 1.0
8
0.0 1.0 0.0 1.0 0.0 1.0 1.0 0.0
4
1.0 0.0 0.0 1.0
8
0.600328 0.399672 0.445276 0.554724 0.621643 0.378357 0.157123 0.842877
8
1.0 0.0 0.0 1.0 0.0 1.0 1.0 0.0
8
0.724778 0.275222 0.94735 0.05265 0.409916 0.590084 0.715017 0.284983
8
0.0 1.0 0.0 1.0 1.0 0.0 0.0 1.0
8
0.941265 0.0587348 0.0960457 0.903954 0.346488 0.653512 0.056214 0.943786
8
0.0 1.0 1.0 0.0 0.0 1.0 0.0 1.0
8
0.00385866 0.996141 0.819111 0.180889 0.349422 0.650578 0.625502 0.374498
8
0.365947 0.634053 0.0321203 0.96788 0.71941 0.28059 0.990664 0.00933593
8
0.0 1.0 0.0 1.0 0.0 1.0 1.0 0.0
8
1.0 0.0 0.0 1.0 1.0 0.0 0.0 1.0
8
0.165472 0.834528 0.375512 0.624488 0.931465 0.0685346 0.511959 0.488041
8
0.0 1.0 1.0 0.0 1.0 0.0 1.0 0.0
8
1.0 0.0 0.0 1.0 1.0 0.0 0.0 1.0
8
0.0 1.0 1.0 0.0 0.0 1.0 0.0 1.0
8
0.0 1.0 1.0 0.0 1.0 0.0 1.0 0.0
8
0.0 1.0 1.0 0.0 0.0 1.0 1.0 0.0
8
1.0 0.0 0.0 1.0 0.0 1.0 1.0 0.0
8
1.0 0.0 0.0 1.0 1.0 0.0 0.0 1.0
8
0.110001 0.889999 0.355857 0.644143 0.0386362 0.961364 0.61895 0.38105
8
1.0 0.0 1.0 0.0 0.0 1.0 1.0 0.0
8
1.0 0.0 0.0 1.0 0.0 1.0 1.0 0.0
4
0.46802 0.53198 0.899047 0.100953
8
1.0 0.0 0.0 1.0 0.0 1.0 1.0 0.0
8
0.0 1.0 1.0 0.0 1.0 0.0 0.0 1.0
8
1.0 0.0 0.0 1.0 1.0 0.0 1.0 0.0
8
0.0 1.0 0.0 1.0 1.0 0.0 1.0 0.0
8
0.0 1.0 1.0 0.0 1.0 0.0 0.0 1.0
8
0.62109 0.37891 0.808103 0.191897 0.739285 0.260715 0.0891101 0.91089
8
0.0 1.0 1.0 0.0 1.0 0.0 0.0 1.0
8
0.0 1.0 0.0 1.0 0.0 1.0 1.0 0.0
8
1.0 0.0 1.0 0.0 1.0 0.0 0.0 1.0
8
0.836778 0.163222 0.0118898 0.98811 0.18305 0.81695 0.306934 0.693066
8
1.0 0.0 0.0 1.0 0.0 1.0 1.0 0.0
8
0.0 1.0 0.0 1.0 1.0 0.0 0.0 1.0
8
0.0319241 0.968076 0.983699 0.0163007 0.312911 0.687089 0.060984 0.939016
8
1.0 0.0 0.0 1.0 1.0 0.0 1.0 0.0
8
0.0 1.0 0.0 1.0 1.0 0.0 0.0 1.0
8
1.0 0.0 1.0 0.0 0.0 1.0 0.0 1.0
8
1.0 0.0 1.0 0.0 1.0 0.0 0.0 1.0
8
0.0 1.0 0.0 1.0 1.0 0.0 1.0 0.0
8
1.0 0.0 0.0 1.0 1.0 0.0 1.0 0.0
8
0.0 1.0 0.0 1.0 1.0 0.0 1.0 0.0
8
1.0 0.0 0.0 1.0 0.0 1.0 0.0 1.0
4
1.0 0.0 0.0 1.0
8
1.0 0.0 1.0 0.0 0.0 1.0 0.0 1.0
8
1.0 0.0 1.0 0.0 1.0 0.0 0.0 1.0
8
0.0 1.0 1.0 0.0 1.0 0.0 1.0 0.0
8
1.0 0.0 0.0 1.0 0.0 1.0 0.0 1.0
8
0.572965 0.427035 0.157549 0.842451 0.0183144 0.981686 0.725772 0.274228
8
0.661785 0.338215 0.193431 0.806569 0.103861 0.896139 0.686525 0.313475
8
0.714637 0.285363 0.275586 0.724414 0.890573 0.109427 0.253941 0.746059
8
0.447162 0.552838 0.0682648 0.931735 0.957566 0.0424342 0.99916 0.000840466
8
0.0 1.0 1.0 0.0 0.0 1.0 1.0 0.0
8
0.0 1.0 1.0 0.0 1.0 0.0 1.0 0.0
8
0.549748 0.450252 0.228222 0.771778 0.0679783 0.932022 0.568062 0.431938
8
0.990107 0.00989335 0.229847 0.770153 0.147425 0.852575 0.0939674 0.906033
8
0.960144 0.0398555 0.808604 0.191396 0.191958 0.808042 0.850718 0.149282
8
0.0 1.0 1.0 0.0 0.0 1.0 1.0 0.0
8
1.0 0.0 0.0 1.0 0.0 1.0 1.0 0.0
8
1.0 0.0 1.0 0.0 0.0 1.0 0.0 1.0
8
1.0 0.0 1.0 0.0 1.0 0.0 0.0 1.0
8
0.0 1.0 0.0 1.0 1.0 0.0 1.0 0.0
8
1.0 0.0 0.0 1.0 1.0 0.0 0.0 1.0
8
1.0 0.0 0.0 1.0 1.0 0.0 0.0 1.0
8
0.0 1.0 0.0 1.0 0.0 1.0 1.0 0.0